NAME          
ROWS
 N  OBJ
 L  c1
 L  c2
COLUMNS
    MARKER    'MARKER'                 'INTORG'
    x[1]      c1        876
    x[1]      c2        905
    x[1]      OBJ       -672
    x[2]      c1        857
    x[2]      c2        982
    x[2]      OBJ       -223
    x[3]      c1        553
    x[3]      c2        685
    x[3]      OBJ       -711
    x[4]      c1        411
    x[4]      c2        220
    x[4]      OBJ       -438
    x[5]      c1        170
    x[5]      c2        826
    x[5]      OBJ       -398
    x[6]      c1        679
    x[6]      c2        900
    x[6]      OBJ       -140
    x[7]      c1        670
    x[7]      c2        48
    x[7]      OBJ       -797
    x[8]      c1        862
    x[8]      c2        143
    x[8]      OBJ       -403
    x[9]      c1        463
    x[9]      c2        529
    x[9]      OBJ       -759
    x[10]     c1        603
    x[10]     c2        396
    x[10]     OBJ       -335
    x[11]     c1        658
    x[11]     c2        919
    x[11]     OBJ       -967
    x[12]     c1        33
    x[12]     c2        11
    x[12]     OBJ       -919
    x[13]     c1        324
    x[13]     c2        75
    x[13]     OBJ       -490
    x[14]     c1        227
    x[14]     c2        495
    x[14]     OBJ       -712
    x[15]     c1        718
    x[15]     c2        303
    x[15]     OBJ       -114
    x[16]     c1        723
    x[16]     c2        455
    x[16]     OBJ       -988
    x[17]     c1        709
    x[17]     c2        791
    x[17]     OBJ       -566
    x[18]     c1        674
    x[18]     c2        425
    x[18]     OBJ       -38
    x[19]     c1        661
    x[19]     c2        635
    x[19]     OBJ       -196
    x[20]     c1        334
    x[20]     c2        872
    x[20]     OBJ       -793
    x[21]     c1        523
    x[21]     c2        815
    x[21]     OBJ       -298
    x[22]     c1        100
    x[22]     c2        465
    x[22]     OBJ       -665
    x[23]     c1        743
    x[23]     c2        712
    x[23]     OBJ       -666
    x[24]     c1        21
    x[24]     c2        677
    x[24]     OBJ       -14
    x[25]     c1        548
    x[25]     c2        502
    x[25]     OBJ       -455
    x[26]     c1        197
    x[26]     c2        497
    x[26]     OBJ       -776
    x[27]     c1        232
    x[27]     c2        580
    x[27]     OBJ       -5
    x[28]     c1        575
    x[28]     c2        405
    x[28]     OBJ       -267
    x[29]     c1        704
    x[29]     c2        660
    x[29]     OBJ       -470
    x[30]     c1        700
    x[30]     c2        386
    x[30]     OBJ       -804
    x[31]     c1        884
    x[31]     c2        304
    x[31]     OBJ       -619
    x[32]     c1        970
    x[32]     c2        245
    x[32]     OBJ       -605
    x[33]     c1        264
    x[33]     c2        719
    x[33]     OBJ       -359
    x[34]     c1        509
    x[34]     c2        63
    x[34]     OBJ       -618
    x[35]     c1        416
    x[35]     c2        5
    x[35]     OBJ       -807
    x[36]     c1        315
    x[36]     c2        457
    x[36]     OBJ       -951
    x[37]     c1        534
    x[37]     c2        449
    x[37]     OBJ       -753
    x[38]     c1        13
    x[38]     c2        25
    x[38]     OBJ       -185
    x[39]     c1        180
    x[39]     c2        250
    x[39]     OBJ       -32
    x[40]     c1        864
    x[40]     c2        895
    x[40]     OBJ       -485
    x[41]     c1        905
    x[41]     c2        284
    x[41]     OBJ       -648
    x[42]     c1        213
    x[42]     c2        90
    x[42]     OBJ       -165
    x[43]     c1        445
    x[43]     c2        257
    x[43]     OBJ       -157
    x[44]     c1        301
    x[44]     c2        423
    x[44]     OBJ       -173
    x[45]     c1        169
    x[45]     c2        839
    x[45]     OBJ       -405
RHS
    rhs       c1        11265
    rhs       c2        10810
RANGES
BOUNDS
 BV bounds    x[1]
 BV bounds    x[2]
 BV bounds    x[3]
 BV bounds    x[4]
 BV bounds    x[5]
 BV bounds    x[6]
 BV bounds    x[7]
 BV bounds    x[8]
 BV bounds    x[9]
 BV bounds    x[10]
 BV bounds    x[11]
 BV bounds    x[12]
 BV bounds    x[13]
 BV bounds    x[14]
 BV bounds    x[15]
 BV bounds    x[16]
 BV bounds    x[17]
 BV bounds    x[18]
 BV bounds    x[19]
 BV bounds    x[20]
 BV bounds    x[21]
 BV bounds    x[22]
 BV bounds    x[23]
 BV bounds    x[24]
 BV bounds    x[25]
 BV bounds    x[26]
 BV bounds    x[27]
 BV bounds    x[28]
 BV bounds    x[29]
 BV bounds    x[30]
 BV bounds    x[31]
 BV bounds    x[32]
 BV bounds    x[33]
 BV bounds    x[34]
 BV bounds    x[35]
 BV bounds    x[36]
 BV bounds    x[37]
 BV bounds    x[38]
 BV bounds    x[39]
 BV bounds    x[40]
 BV bounds    x[41]
 BV bounds    x[42]
 BV bounds    x[43]
 BV bounds    x[44]
 BV bounds    x[45]
ENDATA
